DIR: 0.0, EFF: 0.8333333333333333, INT: 0.08333333333333333, OBJ: 0.08333333333333333
original problem has 18354 variables (18297 bin, 57 int, 0 impl, 0 cont) and 539 constraints
unknown variable <t_S_2> in line 2 of solution file </mnt/lscratch/users/dferrario/Adaptive-Cutsel-MILP/TransformedSolutions/30n20b8__trans__seed__1.sol>
  (further unknown variables are ignored)
1/1 feasible solution given by solution candidate storage, new primal bound 3.020000e+02

presolving:
   (0.1s) running MILP presolver
   (0.2s) MILP presolver (3 rounds): 0 aggregations, 45 fixings, 0 bound changes
   (1.2s) probing: 1000/4530 (22.1%) - 0 fixings, 0 aggregations, 159167 implications, 0 bound changes
   (1.2s) probing: 1001/4530 (22.1%) - 0 fixings, 0 aggregations, 159510 implications, 0 bound changes
   (1.2s) probing aborted: 1000/1000 successive useless probings
presolving (1 rounds: 1 fast, 1 medium, 1 exhaustive):
 13767 deleted vars, 49 deleted constraints, 48 added constraints, 2 tightened bounds, 0 added holes, 3952 changed sides, 5050 changed coefficients
 7016 implications, 2052 cliques
presolved problem has 4587 variables (4530 bin, 2 int, 55 impl, 0 cont) and 538 constraints
     57 constraints of type <varbound>
      1 constraints of type <knapsack>
     30 constraints of type <setppc>
    450 constraints of type <linear>
transformed objective value is always integral (scale: 1)
Presolving Time: 1.23
transformed 1/1 original solutions to the transformed problem space

 time | node  | left  |LP iter|LP it/n|mem/heur|mdpt |vars |cons |rows |cuts |sepa|confs|strbr|  dualbound   | primalbound  |  gap   | compl. 
  2.3s|     1 |     0 |  7603 |     - |    84M |   0 |4587 | 538 | 538 |   0 |  0 |   0 |   0 | 1.122700e+02 | 3.020000e+02 | 168.99%| unknown
Computing relative interior point (time limit: 17.7219, iter limit: 76030) ...
  3.9s|     1 |     0 |  9230 |     - |   369M |   0 |4587 | 538 | 548 |  10 |  1 |   0 |   0 | 1.191131e+02 | 3.020000e+02 | 153.54%| unknown
  4.4s|     1 |     0 |  9665 |     - |   371M |   0 |4588 | 538 | 558 |  20 |  2 |   0 |   0 | 1.191131e+02 | 3.020000e+02 | 153.54%| unknown
  4.4s|     1 |     0 |  9665 |     - |   371M |   0 |4588 | 538 | 558 |  20 |  2 |   0 |   0 | 1.205043e+02 | 3.020000e+02 | 150.61%| unknown
  4.9s|     1 |     0 | 10661 |     - |   372M |   0 |4588 | 538 | 568 |  30 |  3 |   0 |   0 | 1.222288e+02 | 3.020000e+02 | 147.08%| unknown
  5.2s|     1 |     0 | 11317 |     - |   374M |   0 |4588 | 538 | 578 |  40 |  4 |   0 |   0 | 1.233234e+02 | 3.020000e+02 | 144.88%| unknown
  5.4s|     1 |     0 | 11474 |     - |   374M |   0 |4588 | 538 | 588 |  50 |  5 |   0 |   0 | 1.240000e+02 | 3.020000e+02 | 143.55%| unknown
  7.2s|     1 |     0 | 22089 |     - |   374M |   0 |4588 | 538 | 598 |  60 |  6 |   0 |   0 | 1.434145e+02 | 3.020000e+02 | 110.58%| unknown
  8.1s|     1 |     0 | 27117 |     - |   374M |   0 |4588 | 538 | 608 |  70 |  7 |   0 |   0 | 1.510000e+02 | 3.020000e+02 | 100.00%| unknown
  8.3s|     1 |     0 | 27287 |     - |   375M |   0 |4588 | 538 | 618 |  80 |  8 |   0 |   0 | 1.510000e+02 | 3.020000e+02 | 100.00%| unknown
  8.4s|     1 |     0 | 27422 |     - |   375M |   0 |4588 | 538 | 625 |  87 |  9 |   0 |   0 | 1.510000e+02 | 3.020000e+02 | 100.00%| unknown
  8.6s|     1 |     0 | 27542 |     - |   375M |   0 |4588 | 538 | 625 |  93 | 10 |   0 |   0 | 1.510000e+02 | 3.020000e+02 | 100.00%| unknown
  8.7s|     1 |     0 | 27580 |     - |   375M |   0 |4588 | 538 | 630 |  98 | 11 |   0 |   0 | 1.510000e+02 | 3.020000e+02 | 100.00%| unknown
  8.9s|     1 |     0 | 27641 |     - |   375M |   0 |4588 | 538 | 632 | 100 | 12 |   0 |   0 | 1.510000e+02 | 3.020000e+02 | 100.00%| unknown
  9.0s|     1 |     0 | 27766 |     - |   375M |   0 |4588 | 538 | 636 | 104 | 13 |   0 |   0 | 1.510000e+02 | 3.020000e+02 | 100.00%| unknown
 time | node  | left  |LP iter|LP it/n|mem/heur|mdpt |vars |cons |rows |cuts |sepa|confs|strbr|  dualbound   | primalbound  |  gap   | compl. 
  9.0s|     1 |     0 | 27898 |     - |   375M |   0 |4588 | 538 | 639 | 107 | 14 |   0 |   0 | 1.510000e+02 | 3.020000e+02 | 100.00%| unknown
  9.1s|     1 |     0 | 27971 |     - |   375M |   0 |4588 | 538 | 643 | 111 | 15 |   0 |   0 | 1.510000e+02 | 3.020000e+02 | 100.00%| unknown
  9.1s|     1 |     0 | 28015 |     - |   375M |   0 |4588 | 538 | 619 | 113 | 16 |   0 |   0 | 1.510000e+02 | 3.020000e+02 | 100.00%| unknown
  9.2s|     1 |     0 | 28057 |     - |   375M |   0 |4588 | 538 | 622 | 116 | 17 |   0 |   0 | 1.510000e+02 | 3.020000e+02 | 100.00%| unknown
  9.3s|     1 |     0 | 28173 |     - |   375M |   0 |4588 | 538 | 632 | 126 | 18 |   0 |   0 | 1.510000e+02 | 3.020000e+02 | 100.00%| unknown
  9.3s|     1 |     0 | 28285 |     - |   375M |   0 |4588 | 538 | 642 | 136 | 19 |   0 |   0 | 1.510000e+02 | 3.020000e+02 | 100.00%| unknown
  9.4s|     1 |     0 | 28348 |     - |   375M |   0 |4588 | 538 | 652 | 146 | 20 |   0 |   0 | 1.510000e+02 | 3.020000e+02 | 100.00%| unknown
  9.5s|     1 |     0 | 28413 |     - |   376M |   0 |4588 | 538 | 655 | 149 | 21 |   0 |   0 | 1.510000e+02 | 3.020000e+02 | 100.00%| unknown
  9.5s|     1 |     0 | 28422 |     - |   376M |   0 |4588 | 538 | 634 | 150 | 22 |   0 |   0 | 1.510000e+02 | 3.020000e+02 | 100.00%| unknown
  9.6s|     1 |     0 | 28452 |     - |   376M |   0 |4588 | 538 | 635 | 151 | 23 |   0 |   0 | 1.510000e+02 | 3.020000e+02 | 100.00%| unknown
  9.6s|     1 |     0 | 28474 |     - |   376M |   0 |4588 | 538 | 636 | 152 | 24 |   0 |   0 | 1.510000e+02 | 3.020000e+02 | 100.00%| unknown
  9.6s|     1 |     0 | 28492 |     - |   376M |   0 |4588 | 538 | 638 | 154 | 25 |   0 |   0 | 1.510000e+02 | 3.020000e+02 | 100.00%| unknown
  9.7s|     1 |     0 | 28820 |     - |   376M |   0 |4588 | 538 | 644 | 160 | 26 |   0 |   0 | 1.510000e+02 | 3.020000e+02 | 100.00%| unknown
 10.0s|     1 |     0 | 30404 |     - |   376M |   0 |4588 | 538 | 654 | 170 | 27 |   0 |   0 | 1.510000e+02 | 3.020000e+02 | 100.00%| unknown
 10.1s|     1 |     0 | 30747 |     - |   377M |   0 |4588 | 538 | 650 | 180 | 28 |   0 |   0 | 1.510000e+02 | 3.020000e+02 | 100.00%| unknown
 time | node  | left  |LP iter|LP it/n|mem/heur|mdpt |vars |cons |rows |cuts |sepa|confs|strbr|  dualbound   | primalbound  |  gap   | compl. 
 10.2s|     1 |     0 | 30915 |     - |   377M |   0 |4588 | 538 | 658 | 188 | 29 |   0 |   0 | 1.510000e+02 | 3.020000e+02 | 100.00%| unknown
 10.3s|     1 |     0 | 31086 |     - |   377M |   0 |4588 | 538 | 668 | 198 | 30 |   0 |   0 | 1.510000e+02 | 3.020000e+02 | 100.00%| unknown
 10.4s|     1 |     0 | 31174 |     - |   377M |   0 |4588 | 538 | 672 | 202 | 31 |   0 |   0 | 1.510000e+02 | 3.020000e+02 | 100.00%| unknown
 10.4s|     1 |     0 | 31235 |     - |   377M |   0 |4588 | 538 | 676 | 206 | 32 |   0 |   0 | 1.510000e+02 | 3.020000e+02 | 100.00%| unknown
 10.5s|     1 |     0 | 31312 |     - |   378M |   0 |4588 | 538 | 680 | 210 | 33 |   0 |   0 | 1.510000e+02 | 3.020000e+02 | 100.00%| unknown
 10.6s|     1 |     0 | 31407 |     - |   378M |   0 |4588 | 538 | 655 | 213 | 34 |   0 |   0 | 1.510000e+02 | 3.020000e+02 | 100.00%| unknown
 10.6s|     1 |     0 | 31477 |     - |   378M |   0 |4588 | 538 | 661 | 219 | 35 |   0 |   0 | 1.510000e+02 | 3.020000e+02 | 100.00%| unknown
 10.7s|     1 |     0 | 31555 |     - |   378M |   0 |4588 | 538 | 666 | 224 | 36 |   0 |   0 | 1.510000e+02 | 3.020000e+02 | 100.00%| unknown
 10.7s|     1 |     0 | 31665 |     - |   378M |   0 |4588 | 538 | 676 | 234 | 37 |   0 |   0 | 1.510000e+02 | 3.020000e+02 | 100.00%| unknown
 10.8s|     1 |     0 | 31782 |     - |   378M |   0 |4588 | 538 | 684 | 242 | 38 |   0 |   0 | 1.510000e+02 | 3.020000e+02 | 100.00%| unknown
 10.9s|     1 |     0 | 32067 |     - |   379M |   0 |4588 | 538 | 694 | 252 | 39 |   0 |   0 | 1.510000e+02 | 3.020000e+02 | 100.00%| unknown
 10.9s|     1 |     0 | 32067 |     - |   379M |   0 |4588 | 538 | 694 | 252 | 40 |   0 |   0 | 1.510000e+02 | 3.020000e+02 | 100.00%| unknown
 10.9s|     1 |     2 | 32067 |     - |   379M |   0 |4588 | 538 | 694 | 252 | 41 |   0 |   0 | 1.510000e+02 | 3.020000e+02 | 100.00%| unknown

SCIP Status        : solving was interrupted [node limit reached]
Solving Time (sec) : 10.94
Solving Nodes      : 1
Primal Bound       : +3.02000000000000e+02 (1 solutions)
Dual Bound         : +1.51000000000000e+02
Gap                : 100.00 %
